GaAs4x4x4
22.6148
1.0000 0.0000 0.0000
0.0000 1.0000 0.0000
0.0000 0.0000 1.0000
Ga As Bi
256 255 1
Direct
0.0000  0.0000  0.0000
0.0000  0.0000  0.2500
0.0000  0.0000  0.5000
0.0000  0.0000  0.7500
0.0000  0.2500  0.0000
0.0000  0.2500  0.2500
0.0000  0.2500  0.5000
0.0000  0.2500  0.7500
0.0000  0.5000  0.0000
0.0000  0.5000  0.2500
0.0000  0.5000  0.5000
0.0000  0.5000  0.7500
0.0000  0.7500  0.0000
0.0000  0.7500  0.2500
0.0000  0.7500  0.5000
0.0000  0.7500  0.7500
0.2500  0.0000  0.0000
0.2500  0.0000  0.2500
0.2500  0.0000  0.5000
0.2500  0.0000  0.7500
0.2500  0.2500  0.0000
0.2500  0.2500  0.2500
0.2500  0.2500  0.5000
0.2500  0.2500  0.7500
0.2500  0.5000  0.0000
0.2500  0.5000  0.2500
0.2500  0.5000  0.5000
0.2500  0.5000  0.7500
0.2500  0.7500  0.0000
0.2500  0.7500  0.2500
0.2500  0.7500  0.5000
0.2500  0.7500  0.7500
0.5000  0.0000  0.0000
0.5000  0.0000  0.2500
0.5000  0.0000  0.5000
0.5000  0.0000  0.7500
0.5000  0.2500  0.0000
0.5000  0.2500  0.2500
0.5000  0.2500  0.5000
0.5000  0.2500  0.7500
0.5000  0.5000  0.0000
0.5000  0.5000  0.2500
0.5000  0.5000  0.5000
0.5000  0.5000  0.7500
0.5000  0.7500  0.0000
0.5000  0.7500  0.2500
0.5000  0.7500  0.5000
0.5000  0.7500  0.7500
0.7500  0.0000  0.0000
0.7500  0.0000  0.2500
0.7500  0.0000  0.5000
0.7500  0.0000  0.7500
0.7500  0.2500  0.0000
0.7500  0.2500  0.2500
0.7500  0.2500  0.5000
0.7500  0.2500  0.7500
0.7500  0.5000  0.0000
0.7500  0.5000  0.2500
0.7500  0.5000  0.5000
0.7500  0.5000  0.7500
0.7500  0.7500  0.0000
0.7500  0.7500  0.2500
0.7500  0.7500  0.5000
0.7500  0.7500  0.7500
0.0000  0.1250  0.1250
0.0000  0.1250  0.3750
0.0000  0.1250  0.6250
0.0000  0.1250  0.8750
0.0000  0.3750  0.1250
0.0000  0.3750  0.3750
0.0000  0.3750  0.6250
0.0000  0.3750  0.8750
0.0000  0.6250  0.1250
0.0000  0.6250  0.3750
0.0000  0.6250  0.6250
0.0000  0.6250  0.8750
0.0000  0.8750  0.1250
0.0000  0.8750  0.3750
0.0000  0.8750  0.6250
0.0000  0.8750  0.8750
0.2500  0.1250  0.1250
0.2500  0.1250  0.3750
0.2500  0.1250  0.6250
0.2500  0.1250  0.8750
0.2500  0.3750  0.1250
0.2500  0.3750  0.3750
0.2500  0.3750  0.6250
0.2500  0.3750  0.8750
0.2500  0.6250  0.1250
0.2500  0.6250  0.3750
0.2500  0.6250  0.6250
0.2500  0.6250  0.8750
0.2500  0.8750  0.1250
0.2500  0.8750  0.3750
0.2500  0.8750  0.6250
0.2500  0.8750  0.8750
0.5000  0.1250  0.1250
0.5000  0.1250  0.3750
0.5000  0.1250  0.6250
0.5000  0.1250  0.8750
0.5000  0.3750  0.1250
0.5000  0.3750  0.3750
0.5000  0.3750  0.6250
0.5000  0.3750  0.8750
0.5000  0.6250  0.1250
0.5000  0.6250  0.3750
0.5000  0.6250  0.6250
0.5000  0.6250  0.8750
0.5000  0.8750  0.1250
0.5000  0.8750  0.3750
0.5000  0.8750  0.6250
0.5000  0.8750  0.8750
0.7500  0.1250  0.1250
0.7500  0.1250  0.3750
0.7500  0.1250  0.6250
0.7500  0.1250  0.8750
0.7500  0.3750  0.1250
0.7500  0.3750  0.3750
0.7500  0.3750  0.6250
0.7500  0.3750  0.8750
0.7500  0.6250  0.1250
0.7500  0.6250  0.3750
0.7500  0.6250  0.6250
0.7500  0.6250  0.8750
0.7500  0.8750  0.1250
0.7500  0.8750  0.3750
0.7500  0.8750  0.6250
0.7500  0.8750  0.8750
0.1250  0.1250  0.0000
0.1250  0.1250  0.2500
0.1250  0.1250  0.5000
0.1250  0.1250  0.7500
0.1250  0.3750  0.0000
0.1250  0.3750  0.2500
0.1250  0.3750  0.5000
0.1250  0.3750  0.7500
0.1250  0.6250  0.0000
0.1250  0.6250  0.2500
0.1250  0.6250  0.5000
0.1250  0.6250  0.7500
0.1250  0.8750  0.0000
0.1250  0.8750  0.2500
0.1250  0.8750  0.5000
0.1250  0.8750  0.7500
0.3750  0.1250  0.0000
0.3750  0.1250  0.2500
0.3750  0.1250  0.5000
0.3750  0.1250  0.7500
0.3750  0.3750  0.0000
0.3750  0.3750  0.2500
0.3750  0.3750  0.5000
0.3750  0.3750  0.7500
0.3750  0.6250  0.0000
0.3750  0.6250  0.2500
0.3750  0.6250  0.5000
0.3750  0.6250  0.7500
0.3750  0.8750  0.0000
0.3750  0.8750  0.2500
0.3750  0.8750  0.5000
0.3750  0.8750  0.7500
0.6250  0.1250  0.0000
0.6250  0.1250  0.2500
0.6250  0.1250  0.5000
0.6250  0.1250  0.7500
0.6250  0.3750  0.0000
0.6250  0.3750  0.2500
0.6250  0.3750  0.5000
0.6250  0.3750  0.7500
0.6250  0.6250  0.0000
0.6250  0.6250  0.2500
0.6250  0.6250  0.5000
0.6250  0.6250  0.7500
0.6250  0.8750  0.0000
0.6250  0.8750  0.2500
0.6250  0.8750  0.5000
0.6250  0.8750  0.7500
0.8750  0.1250  0.0000
0.8750  0.1250  0.2500
0.8750  0.1250  0.5000
0.8750  0.1250  0.7500
0.8750  0.3750  0.0000
0.8750  0.3750  0.2500
0.8750  0.3750  0.5000
0.8750  0.3750  0.7500
0.8750  0.6250  0.0000
0.8750  0.6250  0.2500
0.8750  0.6250  0.5000
0.8750  0.6250  0.7500
0.8750  0.8750  0.0000
0.8750  0.8750  0.2500
0.8750  0.8750  0.5000
0.8750  0.8750  0.7500
0.1250  0.0000  0.1250
0.1250  0.0000  0.3750
0.1250  0.0000  0.6250
0.1250  0.0000  0.8750
0.1250  0.2500  0.1250
0.1250  0.2500  0.3750
0.1250  0.2500  0.6250
0.1250  0.2500  0.8750
0.1250  0.5000  0.1250
0.1250  0.5000  0.3750
0.1250  0.5000  0.6250
0.1250  0.5000  0.8750
0.1250  0.7500  0.1250
0.1250  0.7500  0.3750
0.1250  0.7500  0.6250
0.1250  0.7500  0.8750
0.3750  0.0000  0.1250
0.3750  0.0000  0.3750
0.3750  0.0000  0.6250
0.3750  0.0000  0.8750
0.3750  0.2500  0.1250
0.3750  0.2500  0.3750
0.3750  0.2500  0.6250
0.3750  0.2500  0.8750
0.3750  0.5000  0.1250
0.3750  0.5000  0.3750
0.3750  0.5000  0.6250
0.3750  0.5000  0.8750
0.3750  0.7500  0.1250
0.3750  0.7500  0.3750
0.3750  0.7500  0.6250
0.3750  0.7500  0.8750
0.6250  0.0000  0.1250
0.6250  0.0000  0.3750
0.6250  0.0000  0.6250
0.6250  0.0000  0.8750
0.6250  0.2500  0.1250
0.6250  0.2500  0.3750
0.6250  0.2500  0.6250
0.6250  0.2500  0.8750
0.6250  0.5000  0.1250
0.6250  0.5000  0.3750
0.6250  0.5000  0.6250
0.6250  0.5000  0.8750
0.6250  0.7500  0.1250
0.6250  0.7500  0.3750
0.6250  0.7500  0.6250
0.6250  0.7500  0.8750
0.8750  0.0000  0.1250
0.8750  0.0000  0.3750
0.8750  0.0000  0.6250
0.8750  0.0000  0.8750
0.8750  0.2500  0.1250
0.8750  0.2500  0.3750
0.8750  0.2500  0.6250
0.8750  0.2500  0.8750
0.8750  0.5000  0.1250
0.8750  0.5000  0.3750
0.8750  0.5000  0.6250
0.8750  0.5000  0.8750
0.8750  0.7500  0.1250
0.8750  0.7500  0.3750
0.8750  0.7500  0.6250
0.8750  0.7500  0.8750
0.0625  0.0625  0.0625
0.0625  0.0625  0.3125
0.0625  0.0625  0.5625
0.0625  0.0625  0.8125
0.0625  0.3125  0.0625
0.0625  0.3125  0.3125
0.0625  0.3125  0.5625
0.0625  0.3125  0.8125
0.0625  0.5625  0.0625
0.0625  0.5625  0.3125
0.0625  0.5625  0.5625
0.0625  0.5625  0.8125
0.0625  0.8125  0.0625
0.0625  0.8125  0.3125
0.0625  0.8125  0.5625
0.0625  0.8125  0.8125
0.3125  0.0625  0.0625
0.3125  0.0625  0.3125
0.3125  0.0625  0.5625
0.3125  0.0625  0.8125
0.3125  0.3125  0.0625
0.3125  0.3125  0.3125
0.3125  0.3125  0.5625
0.3125  0.3125  0.8125
0.3125  0.5625  0.0625
0.3125  0.5625  0.3125
0.3125  0.5625  0.5625
0.3125  0.5625  0.8125
0.3125  0.8125  0.0625
0.3125  0.8125  0.3125
0.3125  0.8125  0.5625
0.3125  0.8125  0.8125
0.5625  0.0625  0.0625
0.5625  0.0625  0.3125
0.5625  0.0625  0.5625
0.5625  0.0625  0.8125
0.5625  0.3125  0.0625
0.5625  0.3125  0.3125
0.5625  0.3125  0.5625
0.5625  0.3125  0.8125
0.5625  0.5625  0.0625
0.5625  0.5625  0.3125
0.5625  0.5625  0.5625
0.5625  0.5625  0.8125
0.5625  0.8125  0.0625
0.5625  0.8125  0.3125
0.5625  0.8125  0.5625
0.5625  0.8125  0.8125
0.8125  0.0625  0.0625
0.8125  0.0625  0.3125
0.8125  0.0625  0.5625
0.8125  0.0625  0.8125
0.8125  0.3125  0.0625
0.8125  0.3125  0.3125
0.8125  0.3125  0.5625
0.8125  0.3125  0.8125
0.8125  0.5625  0.0625
0.8125  0.5625  0.3125
0.8125  0.5625  0.5625
0.8125  0.5625  0.8125
0.8125  0.8125  0.0625
0.8125  0.8125  0.3125
0.8125  0.8125  0.5625
0.8125  0.8125  0.8125
0.0625  0.1875  0.1875
0.0625  0.1875  0.4375
0.0625  0.1875  0.6875
0.0625  0.1875  0.9375
0.0625  0.4375  0.1875
0.0625  0.4375  0.4375
0.0625  0.4375  0.6875
0.0625  0.4375  0.9375
0.0625  0.6875  0.1875
0.0625  0.6875  0.4375
0.0625  0.6875  0.6875
0.0625  0.6875  0.9375
0.0625  0.9375  0.1875
0.0625  0.9375  0.4375
0.0625  0.9375  0.6875
0.0625  0.9375  0.9375
0.3125  0.1875  0.1875
0.3125  0.1875  0.4375
0.3125  0.1875  0.6875
0.3125  0.1875  0.9375
0.3125  0.4375  0.1875
0.3125  0.4375  0.4375
0.3125  0.4375  0.6875
0.3125  0.4375  0.9375
0.3125  0.6875  0.1875
0.3125  0.6875  0.4375
0.3125  0.6875  0.6875
0.3125  0.6875  0.9375
0.3125  0.9375  0.1875
0.3125  0.9375  0.4375
0.3125  0.9375  0.6875
0.3125  0.9375  0.9375
0.5625  0.1875  0.1875
0.5625  0.1875  0.4375
0.5625  0.1875  0.6875
0.5625  0.1875  0.9375
0.5625  0.4375  0.1875
0.5625  0.4375  0.4375
0.5625  0.4375  0.6875
0.5625  0.4375  0.9375
0.5625  0.6875  0.1875
0.5625  0.6875  0.4375
0.5625  0.6875  0.6875
0.5625  0.6875  0.9375
0.5625  0.9375  0.1875
0.5625  0.9375  0.4375
0.5625  0.9375  0.6875
0.5625  0.9375  0.9375
0.8125  0.1875  0.1875
0.8125  0.1875  0.4375
0.8125  0.1875  0.6875
0.8125  0.1875  0.9375
0.8125  0.4375  0.1875
0.8125  0.4375  0.4375
0.8125  0.4375  0.6875
0.8125  0.4375  0.9375
0.8125  0.6875  0.1875
0.8125  0.6875  0.4375
0.8125  0.6875  0.6875
0.8125  0.6875  0.9375
0.8125  0.9375  0.1875
0.8125  0.9375  0.4375
0.8125  0.9375  0.6875
0.8125  0.9375  0.9375
0.1875  0.1875  0.0625
0.1875  0.1875  0.3125
0.1875  0.1875  0.5625
0.1875  0.1875  0.8125
0.1875  0.4375  0.0625
0.1875  0.4375  0.3125
0.1875  0.4375  0.5625
0.1875  0.4375  0.8125
0.1875  0.6875  0.0625
0.1875  0.6875  0.3125
0.1875  0.6875  0.5625
0.1875  0.6875  0.8125
0.1875  0.9375  0.0625
0.1875  0.9375  0.3125
0.1875  0.9375  0.5625
0.1875  0.9375  0.8125
0.4375  0.1875  0.0625
0.4375  0.1875  0.3125
0.4375  0.1875  0.5625
0.4375  0.1875  0.8125
0.4375  0.4375  0.0625
0.4375  0.4375  0.3125
0.4375  0.4375  0.5625
0.4375  0.4375  0.8125
0.4375  0.6875  0.0625
0.4375  0.6875  0.3125
0.4375  0.6875  0.5625
0.4375  0.6875  0.8125
0.4375  0.9375  0.0625
0.4375  0.9375  0.3125
0.4375  0.9375  0.5625
0.4375  0.9375  0.8125
0.6875  0.1875  0.0625
0.6875  0.1875  0.3125
0.6875  0.1875  0.5625
0.6875  0.1875  0.8125
0.6875  0.4375  0.0625
0.6875  0.4375  0.3125
0.6875  0.4375  0.5625
0.6875  0.4375  0.8125
0.6875  0.6875  0.0625
0.6875  0.6875  0.3125
0.6875  0.6875  0.5625
0.6875  0.6875  0.8125
0.6875  0.9375  0.0625
0.6875  0.9375  0.3125
0.6875  0.9375  0.5625
0.6875  0.9375  0.8125
0.9375  0.1875  0.0625
0.9375  0.1875  0.3125
0.9375  0.1875  0.5625
0.9375  0.1875  0.8125
0.9375  0.4375  0.0625
0.9375  0.4375  0.3125
0.9375  0.4375  0.5625
0.9375  0.4375  0.8125
0.9375  0.6875  0.0625
0.9375  0.6875  0.3125
0.9375  0.6875  0.5625
0.9375  0.6875  0.8125
0.9375  0.9375  0.0625
0.9375  0.9375  0.3125
0.9375  0.9375  0.5625
0.9375  0.9375  0.8125
0.1875  0.0625  0.1875
0.1875  0.0625  0.4375
0.1875  0.0625  0.6875
0.1875  0.0625  0.9375
0.1875  0.3125  0.1875
0.1875  0.3125  0.4375
0.1875  0.3125  0.6875
0.1875  0.3125  0.9375
0.1875  0.5625  0.1875
0.1875  0.5625  0.4375
0.1875  0.5625  0.6875
0.1875  0.5625  0.9375
0.1875  0.8125  0.1875
0.1875  0.8125  0.4375
0.1875  0.8125  0.6875
0.1875  0.8125  0.9375
0.4375  0.0625  0.1875
0.4375  0.0625  0.4375
0.4375  0.0625  0.6875
0.4375  0.0625  0.9375
0.4375  0.3125  0.1875
0.4375  0.3125  0.4375
0.4375  0.3125  0.6875
0.4375  0.3125  0.9375
0.4375  0.5625  0.1875
0.4375  0.5625  0.4375
0.4375  0.5625  0.6875
0.4375  0.5625  0.9375
0.4375  0.8125  0.1875
0.4375  0.8125  0.4375
0.4375  0.8125  0.6875
0.4375  0.8125  0.9375
0.6875  0.0625  0.1875
0.6875  0.0625  0.4375
0.6875  0.0625  0.6875
0.6875  0.0625  0.9375
0.6875  0.3125  0.1875
0.6875  0.3125  0.4375
0.6875  0.3125  0.6875
0.6875  0.3125  0.9375
0.6875  0.5625  0.1875
0.6875  0.5625  0.4375
0.6875  0.5625  0.6875
0.6875  0.5625  0.9375
0.6875  0.8125  0.1875
0.6875  0.8125  0.4375
0.6875  0.8125  0.6875
0.6875  0.8125  0.9375
0.9375  0.0625  0.1875
0.9375  0.0625  0.4375
0.9375  0.0625  0.6875
0.9375  0.0625  0.9375
0.9375  0.3125  0.1875
0.9375  0.3125  0.4375
0.9375  0.3125  0.6875
0.9375  0.3125  0.9375
0.9375  0.5625  0.1875
0.9375  0.5625  0.4375
0.9375  0.5625  0.6875
0.9375  0.5625  0.9375
0.9375  0.8125  0.1875
0.9375  0.8125  0.4375
0.9375  0.8125  0.6875
0.9375  0.8125  0.9375
